\ Model matlab
\ LP format - for model browsing. Use MPS format to capture full model detail.
Minimize
  10 C0 + 10 C1 + 10 C2 + 1.450666666666667 C4 - 73.5124 C5
   + 89.62226031934132 C6 - 17.19788194558553 C7 + 1.450666666666667 C8
   - 73.5124 C9 + 89.62226031934132 C10 - 17.19788194558553 C11
   + 1.450666666666667 C12 - 73.5124 C13 + 89.62226031934132 C14
   - 17.19788194558553 C15 + 1.450666666666667 C16 - 73.5124 C17
   + 89.62226031934132 C18 - 17.19788194558553 C19 - 52.61679781214719 C20
   - 55.22642316338268 C21 - 57.82172325201155 C22 + 2.7904 C24
   + 17.5632 C25 - 7.347425448559642 C26 + 16.23248000000005 C27
   + 2.7904 C28 + 17.5632 C29 - 7.347425448559642 C30
   + 16.23248000000005 C31 + 2.7904 C32 + 17.5632 C33
   - 7.347425448559642 C34 + 16.23248000000005 C35 + 2.7904 C36
   + 17.5632 C37 - 7.347425448559642 C38 + 16.23248000000005 C39 - 16 C40
Subject To
 R0: C4 + C5 + C6 + C7 <= 1
 R1: - C40 <= 10
 R2: C40 <= 120
 R3: - 5 C4 + C24 <= 0
 R4: - C24 <= 0
 R5: - C20 + C24 <= 0
 R6: 5 C4 + C20 - C24 <= 5
 R7: - C20 <= -2.22045e-16
 R8: - 6.5 C5 + C25 <= 0
 R9: 5 C5 - C25 <= 0
 R10: - 5 C5 - C20 + C25 <= -5
 R11: 6.5 C5 + C20 - C25 <= 6.5
 R12: 6.5 C5 - C20 <= -2.22045e-16
 R13: - 11 C6 + C26 <= 0
 R14: 6.5 C6 - C26 <= 0
 R15: - 6.5 C6 - C20 + C26 <= -6.5
 R16: 11 C6 + C20 - C26 <= 11
 R17: 6.5 C6 - C20 <= -2.22045e-16
 R18: - 15 C7 + C27 <= 0
 R19: 11 C7 - C27 <= 0
 R20: - 11 C7 - C20 + C27 <= -11
 R21: 15 C7 + C20 - C27 <= 15
 R22: 11 C7 - C20 <= -2.22045e-16
 R23: C8 + C9 + C10 + C11 <= 1
 R24: 0.3626666666666667 C4 - 18.3781 C5 + 22.40556507983533 C6
   - 4.299470486396383 C7 + 0.6976 C24 + 4.3908 C25 - 1.836856362139911 C26
   + 4.05812 C27 - C40 <= 10.08
 R25: - 0.3626666666666667 C4 + 18.3781 C5 - 22.40556507983533 C6
   + 4.299470486396383 C7 - 0.6976 C24 - 4.3908 C25 + 1.836856362139911 C26
   - 4.05812 C27 + C40 <= 119.92
 R26: - 5 C8 + C28 <= 0
 R27: - C28 <= 0
 R28: - C21 + C28 <= 0
 R29: 5 C8 + C21 - C28 <= 5
 R30: - C21 <= -2.22045e-16
 R31: - 6.5 C9 + C29 <= 0
 R32: 5 C9 - C29 <= 0
 R33: - 5 C9 - C21 + C29 <= -5
 R34: 6.5 C9 + C21 - C29 <= 6.5
 R35: 6.5 C9 - C21 <= -2.22045e-16
 R36: - 11 C10 + C30 <= 0
 R37: 6.5 C10 - C30 <= 0
 R38: - 6.5 C10 - C21 + C30 <= -6.5
 R39: 11 C10 + C21 - C30 <= 11
 R40: 6.5 C10 - C21 <= -2.22045e-16
 R41: - 15 C11 + C31 <= 0
 R42: 11 C11 - C31 <= 0
 R43: - 11 C11 - C21 + C31 <= -11
 R44: 15 C11 + C21 - C31 <= 15
 R45: 11 C11 - C21 <= -2.22045e-16
 R46: C12 + C13 + C14 + C15 <= 1
 R47: 0.3626666666666667 C4 - 18.3781 C5 + 22.40556507983533 C6
   - 4.299470486396383 C7 + 0.3626666666666667 C8 - 18.3781 C9
   + 22.40556507983533 C10 - 4.299470486396383 C11 + 0.6976 C24
   + 4.3908 C25 - 1.836856362139911 C26 + 4.05812 C27 + 0.6976 C28
   + 4.3908 C29 - 1.836856362139911 C30 + 4.05812 C31 - C40 <= 10.16
 R48: - 0.3626666666666667 C4 + 18.3781 C5 - 22.40556507983533 C6
   + 4.299470486396383 C7 - 0.3626666666666667 C8 + 18.3781 C9
   - 22.40556507983533 C10 + 4.299470486396383 C11 - 0.6976 C24
   - 4.3908 C25 + 1.836856362139911 C26 - 4.05812 C27 - 0.6976 C28
   - 4.3908 C29 + 1.836856362139911 C30 - 4.05812 C31 + C40 <= 119.84
 R49: - 5 C12 + C32 <= 0
 R50: - C32 <= 0
 R51: - C22 + C32 <= 0
 R52: 5 C12 + C22 - C32 <= 5
 R53: - C22 <= -2.22045e-16
 R54: - 6.5 C13 + C33 <= 0
 R55: 5 C13 - C33 <= 0
 R56: - 5 C13 - C22 + C33 <= -5
 R57: 6.5 C13 + C22 - C33 <= 6.5
 R58: 6.5 C13 - C22 <= -2.22045e-16
 R59: - 11 C14 + C34 <= 0
 R60: 6.5 C14 - C34 <= 0
 R61: - 6.5 C14 - C22 + C34 <= -6.5
 R62: 11 C14 + C22 - C34 <= 11
 R63: 6.5 C14 - C22 <= -2.22045e-16
 R64: - 15 C15 + C35 <= 0
 R65: 11 C15 - C35 <= 0
 R66: - 11 C15 - C22 + C35 <= -11
 R67: 15 C15 + C22 - C35 <= 15
 R68: 11 C15 - C22 <= -2.22045e-16
 R69: C16 + C17 + C18 + C19 <= 1
 R70: 0.3626666666666667 C4 - 18.3781 C5 + 22.40556507983533 C6
   - 4.299470486396383 C7 + 0.3626666666666667 C8 - 18.3781 C9
   + 22.40556507983533 C10 - 4.299470486396383 C11 + 0.3626666666666667 C12
   - 18.3781 C13 + 22.40556507983533 C14 - 4.299470486396383 C15
   + 0.6976 C24 + 4.3908 C25 - 1.836856362139911 C26 + 4.05812 C27
   + 0.6976 C28 + 4.3908 C29 - 1.836856362139911 C30 + 4.05812 C31
   + 0.6976 C32 + 4.3908 C33 - 1.836856362139911 C34 + 4.05812 C35 - C40
   <= 10.24
 R71: - 0.3626666666666667 C4 + 18.3781 C5 - 22.40556507983533 C6
   + 4.299470486396383 C7 - 0.3626666666666667 C8 + 18.3781 C9
   - 22.40556507983533 C10 + 4.299470486396383 C11 - 0.3626666666666667 C12
   + 18.3781 C13 - 22.40556507983533 C14 + 4.299470486396383 C15
   - 0.6976 C24 - 4.3908 C25 + 1.836856362139911 C26 - 4.05812 C27
   - 0.6976 C28 - 4.3908 C29 + 1.836856362139911 C30 - 4.05812 C31
   - 0.6976 C32 - 4.3908 C33 + 1.836856362139911 C34 - 4.05812 C35 + C40
   <= 119.76
 R72: - 5 C16 + C36 <= 0
 R73: - C36 <= 0
 R74: - C23 + C36 <= 0
 R75: 5 C16 + C23 - C36 <= 5
 R76: - C23 <= -2.22045e-16
 R77: - 6.5 C17 + C37 <= 0
 R78: 5 C17 - C37 <= 0
 R79: - 5 C17 - C23 + C37 <= -5
 R80: 6.5 C17 + C23 - C37 <= 6.5
 R81: 6.5 C17 - C23 <= -2.22045e-16
 R82: - 11 C18 + C38 <= 0
 R83: 6.5 C18 - C38 <= 0
 R84: - 6.5 C18 - C23 + C38 <= -6.5
 R85: 11 C18 + C23 - C38 <= 11
 R86: 6.5 C18 - C23 <= -2.22045e-16
 R87: - 15 C19 + C39 <= 0
 R88: 11 C19 - C39 <= 0
 R89: - 11 C19 - C23 + C39 <= -11
 R90: 15 C19 + C23 - C39 <= 15
 R91: 11 C19 - C23 <= -2.22045e-16
 R92: - C0 - C4 - C5 - C6 - C7 <= 0
 R93: - C1 + C4 + C5 + C6 + C7 - C8 - C9 - C10 - C11 <= 0
 R94: - C2 + C8 + C9 + C10 + C11 - C12 - C13 - C14 - C15 <= 0
 R95: - C3 + C12 + C13 + C14 + C15 - C16 - C17 - C18 - C19 <= 0
 R96: - C0 + C4 + C5 + C6 + C7 <= 0
 R97: - C1 - C4 - C5 - C6 - C7 + C8 + C9 + C10 + C11 <= 0
 R98: - C2 - C8 - C9 - C10 - C11 + C12 + C13 + C14 + C15 <= 0
 R99: - C3 - C12 - C13 - C14 - C15 + C16 + C17 + C18 + C19 <= 0
Bounds
Binaries
 C4 C5 C6 C7 C8 C9 C10 C11 C12 C13 C14 C15 C16 C17 C18 C19
Semi-continuous
 C24 C25 C26 C27 C28 C29 C30 C31 C32 C33 C34 C35 C36 C37 C38 C39
End
